p cnf 200 2156
1 2 3 4 5 0
6 7 8 9 10 0
11 12 13 14 15 0
16 17 18 19 20 0
21 22 23 24 25 0
26 27 28 29 30 0
31 32 33 34 35 0
36 37 38 39 40 0
41 42 43 44 45 0
46 47 48 49 50 0
51 52 53 54 55 0
56 57 58 59 60 0
61 62 63 64 65 0
66 67 68 69 70 0
71 72 73 74 75 0
76 77 78 79 80 0
81 82 83 84 85 0
86 87 88 89 90 0
91 92 93 94 95 0
96 97 98 99 100 0
101 102 103 104 105 0
106 107 108 109 110 0
111 112 113 114 115 0
116 117 118 119 120 0
121 122 123 124 125 0
126 127 128 129 130 0
131 132 133 134 135 0
136 137 138 139 140 0
141 142 143 144 145 0
146 147 148 149 150 0
151 152 153 154 155 0
156 157 158 159 160 0
161 162 163 164 165 0
166 167 168 169 170 0
171 172 173 174 175 0
176 177 178 179 180 0
181 182 183 184 185 0
186 187 188 189 190 0
191 192 193 194 195 0
196 197 198 199 200 0
-1 -2 0
-1 -3 0
-1 -4 0
-1 -5 0
-2 -3 0
-2 -4 0
-2 -5 0
-3 -4 0
-3 -5 0
-4 -5 0
-6 -7 0
-6 -8 0
-6 -9 0
-6 -10 0
-7 -8 0
-7 -9 0
-7 -10 0
-8 -9 0
-8 -10 0
-9 -10 0
-11 -12 0
-11 -13 0
-11 -14 0
-11 -15 0
-12 -13 0
-12 -14 0
-12 -15 0
-13 -14 0
-13 -15 0
-14 -15 0
-16 -17 0
-16 -18 0
-16 -19 0
-16 -20 0
-17 -18 0
-17 -19 0
-17 -20 0
-18 -19 0
-18 -20 0
-19 -20 0
-21 -22 0
-21 -23 0
-21 -24 0
-21 -25 0
-22 -23 0
-22 -24 0
-22 -25 0
-23 -24 0
-23 -25 0
-24 -25 0
-26 -27 0
-26 -28 0
-26 -29 0
-26 -30 0
-27 -28 0
-27 -29 0
-27 -30 0
-28 -29 0
-28 -30 0
-29 -30 0
-31 -32 0
-31 -33 0
-31 -34 0
-31 -35 0
-32 -33 0
-32 -34 0
-32 -35 0
-33 -34 0
-33 -35 0
-34 -35 0
-36 -37 0
-36 -38 0
-36 -39 0
-36 -40 0
-37 -38 0
-37 -39 0
-37 -40 0
-38 -39 0
-38 -40 0
-39 -40 0
-41 -42 0
-41 -43 0
-41 -44 0
-41 -45 0
-42 -43 0
-42 -44 0
-42 -45 0
-43 -44 0
-43 -45 0
-44 -45 0
-46 -47 0
-46 -48 0
-46 -49 0
-46 -50 0
-47 -48 0
-47 -49 0
-47 -50 0
-48 -49 0
-48 -50 0
-49 -50 0
-51 -52 0
-51 -53 0
-51 -54 0
-51 -55 0
-52 -53 0
-52 -54 0
-52 -55 0
-53 -54 0
-53 -55 0
-54 -55 0
-56 -57 0
-56 -58 0
-56 -59 0
-56 -60 0
-57 -58 0
-57 -59 0
-57 -60 0
-58 -59 0
-58 -60 0
-59 -60 0
-61 -62 0
-61 -63 0
-61 -64 0
-61 -65 0
-62 -63 0
-62 -64 0
-62 -65 0
-63 -64 0
-63 -65 0
-64 -65 0
-66 -67 0
-66 -68 0
-66 -69 0
-66 -70 0
-67 -68 0
-67 -69 0
-67 -70 0
-68 -69 0
-68 -70 0
-69 -70 0
-71 -72 0
-71 -73 0
-71 -74 0
-71 -75 0
-72 -73 0
-72 -74 0
-72 -75 0
-73 -74 0
-73 -75 0
-74 -75 0
-76 -77 0
-76 -78 0
-76 -79 0
-76 -80 0
-77 -78 0
-77 -79 0
-77 -80 0
-78 -79 0
-78 -80 0
-79 -80 0
-81 -82 0
-81 -83 0
-81 -84 0
-81 -85 0
-82 -83 0
-82 -84 0
-82 -85 0
-83 -84 0
-83 -85 0
-84 -85 0
-86 -87 0
-86 -88 0
-86 -89 0
-86 -90 0
-87 -88 0
-87 -89 0
-87 -90 0
-88 -89 0
-88 -90 0
-89 -90 0
-91 -92 0
-91 -93 0
-91 -94 0
-91 -95 0
-92 -93 0
-92 -94 0
-92 -95 0
-93 -94 0
-93 -95 0
-94 -95 0
-96 -97 0
-96 -98 0
-96 -99 0
-96 -100 0
-97 -98 0
-97 -99 0
-97 -100 0
-98 -99 0
-98 -100 0
-99 -100 0
-101 -102 0
-101 -103 0
-101 -104 0
-101 -105 0
-102 -103 0
-102 -104 0
-102 -105 0
-103 -104 0
-103 -105 0
-104 -105 0
-106 -107 0
-106 -108 0
-106 -109 0
-106 -110 0
-107 -108 0
-107 -109 0
-107 -110 0
-108 -109 0
-108 -110 0
-109 -110 0
-111 -112 0
-111 -113 0
-111 -114 0
-111 -115 0
-112 -113 0
-112 -114 0
-112 -115 0
-113 -114 0
-113 -115 0
-114 -115 0
-116 -117 0
-116 -118 0
-116 -119 0
-116 -120 0
-117 -118 0
-117 -119 0
-117 -120 0
-118 -119 0
-118 -120 0
-119 -120 0
-121 -122 0
-121 -123 0
-121 -124 0
-121 -125 0
-122 -123 0
-122 -124 0
-122 -125 0
-123 -124 0
-123 -125 0
-124 -125 0
-126 -127 0
-126 -128 0
-126 -129 0
-126 -130 0
-127 -128 0
-127 -129 0
-127 -130 0
-128 -129 0
-128 -130 0
-129 -130 0
-131 -132 0
-131 -133 0
-131 -134 0
-131 -135 0
-132 -133 0
-132 -134 0
-132 -135 0
-133 -134 0
-133 -135 0
-134 -135 0
-136 -137 0
-136 -138 0
-136 -139 0
-136 -140 0
-137 -138 0
-137 -139 0
-137 -140 0
-138 -139 0
-138 -140 0
-139 -140 0
-141 -142 0
-141 -143 0
-141 -144 0
-141 -145 0
-142 -143 0
-142 -144 0
-142 -145 0
-143 -144 0
-143 -145 0
-144 -145 0
-146 -147 0
-146 -148 0
-146 -149 0
-146 -150 0
-147 -148 0
-147 -149 0
-147 -150 0
-148 -149 0
-148 -150 0
-149 -150 0
-151 -152 0
-151 -153 0
-151 -154 0
-151 -155 0
-152 -153 0
-152 -154 0
-152 -155 0
-153 -154 0
-153 -155 0
-154 -155 0
-156 -157 0
-156 -158 0
-156 -159 0
-156 -160 0
-157 -158 0
-157 -159 0
-157 -160 0
-158 -159 0
-158 -160 0
-159 -160 0
-161 -162 0
-161 -163 0
-161 -164 0
-161 -165 0
-162 -163 0
-162 -164 0
-162 -165 0
-163 -164 0
-163 -165 0
-164 -165 0
-166 -167 0
-166 -168 0
-166 -169 0
-166 -170 0
-167 -168 0
-167 -169 0
-167 -170 0
-168 -169 0
-168 -170 0
-169 -170 0
-171 -172 0
-171 -173 0
-171 -174 0
-171 -175 0
-172 -173 0
-172 -174 0
-172 -175 0
-173 -174 0
-173 -175 0
-174 -175 0
-176 -177 0
-176 -178 0
-176 -179 0
-176 -180 0
-177 -178 0
-177 -179 0
-177 -180 0
-178 -179 0
-178 -180 0
-179 -180 0
-181 -182 0
-181 -183 0
-181 -184 0
-181 -185 0
-182 -183 0
-182 -184 0
-182 -185 0
-183 -184 0
-183 -185 0
-184 -185 0
-186 -187 0
-186 -188 0
-186 -189 0
-186 -190 0
-187 -188 0
-187 -189 0
-187 -190 0
-188 -189 0
-188 -190 0
-189 -190 0
-191 -192 0
-191 -193 0
-191 -194 0
-191 -195 0
-192 -193 0
-192 -194 0
-192 -195 0
-193 -194 0
-193 -195 0
-194 -195 0
-196 -197 0
-196 -198 0
-196 -199 0
-196 -200 0
-197 -198 0
-197 -199 0
-197 -200 0
-198 -199 0
-198 -200 0
-199 -200 0
-2 -25 0
-3 -22 0
-3 -25 0
-1 -25 0
-2 -24 0
-4 -24 0
-4 -21 0
-5 -22 0
-4 -22 0
-3 -23 0
-2 -22 0
-1 -21 0
-5 -21 0
-5 -24 0
-1 -23 0
-5 -23 0
-3 -21 0
-2 -21 0
-5 -25 0
-4 -23 0
-1 -22 0
-4 -25 0
-2 -29 0
-1 -30 0
-2 -30 0
-5 -27 0
-3 -26 0
-3 -30 0
-1 -29 0
-3 -27 0
-4 -29 0
-2 -28 0
-5 -29 0
-2 -27 0
-1 -27 0
-2 -26 0
-4 -30 0
-5 -28 0
-1 -28 0
-5 -30 0
-3 -28 0
-4 -26 0
-4 -27 0
-1 -26 0
-1 -104 0
-4 -104 0
-3 -103 0
-2 -105 0
-3 -104 0
-1 -105 0
-5 -102 0
-2 -101 0
-1 -101 0
-1 -103 0
-3 -102 0
-2 -104 0
-5 -104 0
-3 -105 0
-1 -102 0
-2 -102 0
-4 -102 0
-3 -101 0
-4 -103 0
-2 -103 0
-5 -105 0
-5 -101 0
-6 -18 0
-10 -18 0
-6 -16 0
-10 -19 0
-8 -17 0
-10 -16 0
-9 -18 0
-6 -19 0
-9 -20 0
-10 -20 0
-8 -19 0
-9 -16 0
-7 -17 0
-7 -16 0
-9 -19 0
-9 -17 0
-7 -20 0
-6 -17 0
-10 -17 0
-8 -16 0
-8 -18 0
-8 -20 0
-10 -67 0
-6 -66 0
-7 -67 0
-7 -70 0
-6 -67 0
-9 -66 0
-7 -68 0
-9 -67 0
-10 -68 0
-8 -70 0
-10 -66 0
-8 -69 0
-8 -67 0
-10 -70 0
-6 -70 0
-10 -69 0
-9 -68 0
-7 -66 0
-9 -69 0
-7 -69 0
-8 -68 0
-6 -68 0
-10 -141 0
-6 -144 0
-7 -144 0
-8 -143 0
-10 -144 0
-9 -141 0
-7 -141 0
-8 -145 0
-8 -141 0
-6 -143 0
-10 -142 0
-6 -145 0
-6 -141 0
-8 -144 0
-9 -142 0
-9 -143 0
-7 -142 0
-6 -142 0
-8 -142 0
-7 -145 0
-7 -143 0
-9 -145 0
-11 -25 0
-12 -25 0
-12 -23 0
-11 -21 0
-13 -23 0
-11 -24 0
-15 -25 0
-11 -22 0
-15 -21 0
-15 -24 0
-13 -21 0
-11 -23 0
-14 -25 0
-14 -24 0
-13 -22 0
-13 -25 0
-15 -23 0
-14 -23 0
-12 -24 0
-12 -22 0
-12 -21 0
-13 -24 0
-11 -110 0
-11 -107 0
-13 -107 0
-15 -109 0
-15 -108 0
-11 -109 0
-13 -108 0
-12 -108 0
-13 -109 0
-12 -109 0
-11 -108 0
-14 -109 0
-14 -110 0
-14 -107 0
-11 -106 0
-12 -106 0
-12 -107 0
-15 -110 0
-13 -106 0
-12 -110 0
-15 -106 0
-14 -106 0
-13 -132 0
-14 -134 0
-11 -133 0
-13 -133 0
-14 -133 0
-11 -132 0
-14 -131 0
-15 -133 0
-15 -135 0
-12 -135 0
-12 -131 0
-11 -134 0
-12 -132 0
-12 -134 0
-12 -133 0
-14 -132 0
-11 -135 0
-13 -135 0
-15 -134 0
-15 -131 0
-13 -131 0
-13 -134 0
-12 -162 0
-15 -164 0
-15 -161 0
-11 -165 0
-15 -162 0
-11 -161 0
-15 -165 0
-11 -164 0
-14 -162 0
-11 -163 0
-12 -164 0
-13 -165 0
-14 -163 0
-12 -163 0
-12 -161 0
-13 -162 0
-13 -164 0
-11 -162 0
-14 -164 0
-13 -161 0
-14 -165 0
-14 -161 0
-19 -40 0
-19 -39 0
-18 -38 0
-20 -36 0
-18 -40 0
-16 -37 0
-20 -40 0
-19 -36 0
-17 -39 0
-20 -39 0
-20 -37 0
-17 -40 0
-17 -38 0
-16 -38 0
-16 -40 0
-17 -37 0
-20 -38 0
-19 -37 0
-16 -39 0
-18 -39 0
-18 -36 0
-19 -38 0
-19 -51 0
-17 -53 0
-18 -53 0
-16 -51 0
-19 -53 0
-19 -54 0
-17 -55 0
-17 -54 0
-20 -51 0
-18 -51 0
-17 -52 0
-16 -53 0
-18 -54 0
-16 -52 0
-20 -52 0
-19 -55 0
-16 -54 0
-18 -52 0
-20 -55 0
-19 -52 0
-20 -54 0
-18 -55 0
-18 -83 0
-18 -84 0
-19 -84 0
-18 -85 0
-20 -82 0
-16 -81 0
-17 -83 0
-20 -83 0
-19 -82 0
-20 -84 0
-19 -83 0
-16 -83 0
-19 -81 0
-20 -85 0
-18 -82 0
-17 -85 0
-20 -81 0
-16 -84 0
-16 -85 0
-17 -84 0
-17 -82 0
-16 -82 0
-19 -105 0
-18 -104 0
-19 -103 0
-16 -105 0
-20 -105 0
-16 -102 0
-17 -102 0
-19 -101 0
-20 -104 0
-18 -102 0
-17 -103 0
-16 -104 0
-19 -102 0
-18 -103 0
-18 -101 0
-18 -105 0
-19 -104 0
-16 -101 0
-20 -101 0
-16 -103 0
-20 -102 0
-17 -101 0
-17 -192 0
-19 -193 0
-16 -191 0
-18 -191 0
-18 -194 0
-20 -195 0
-20 -193 0
-20 -191 0
-17 -193 0
-17 -195 0
-20 -194 0
-19 -192 0
-19 -191 0
-16 -195 0
-16 -192 0
-17 -191 0
-19 -195 0
-16 -193 0
-16 -194 0
-20 -192 0
-18 -192 0
-19 -194 0
-24 -118 0
-23 -119 0
-25 -117 0
-24 -119 0
-21 -120 0
-25 -118 0
-22 -119 0
-22 -116 0
-23 -116 0
-24 -120 0
-21 -117 0
-23 -118 0
-25 -120 0
-24 -116 0
-21 -116 0
-22 -118 0
-21 -119 0
-25 -116 0
-24 -117 0
-25 -119 0
-22 -120 0
-21 -118 0
-23 -128 0
-22 -126 0
-23 -130 0
-25 -127 0
-25 -130 0
-21 -130 0
-21 -126 0
-22 -128 0
-24 -130 0
-22 -127 0
-24 -129 0
-23 -129 0
-23 -126 0
-24 -128 0
-22 -129 0
-23 -127 0
-25 -129 0
-25 -128 0
-25 -126 0
-21 -127 0
-21 -128 0
-22 -130 0
-24 -138 0
-24 -140 0
-24 -137 0
-25 -137 0
-23 -136 0
-21 -137 0
-22 -140 0
-25 -138 0
-21 -138 0
-21 -140 0
-25 -136 0
-21 -136 0
-24 -136 0
-22 -139 0
-21 -139 0
-25 -139 0
-22 -138 0
-23 -138 0
-22 -136 0
-25 -140 0
-24 -139 0
-23 -139 0
-22 -167 0
-23 -169 0
-25 -170 0
-22 -169 0
-21 -169 0
-24 -168 0
-24 -166 0
-25 -166 0
-23 -167 0
-24 -169 0
-22 -170 0
-21 -168 0
-23 -170 0
-24 -170 0
-25 -169 0
-21 -166 0
-25 -168 0
-23 -168 0
-23 -166 0
-21 -170 0
-22 -166 0
-21 -167 0
-30 -72 0
-26 -75 0
-29 -72 0
-26 -72 0
-28 -75 0
-26 -71 0
-30 -71 0
-28 -73 0
-28 -72 0
-29 -74 0
-26 -73 0
-27 -71 0
-27 -73 0
-30 -74 0
-28 -71 0
-27 -74 0
-29 -75 0
-30 -75 0
-27 -72 0
-27 -75 0
-26 -74 0
-29 -71 0
-35 -56 0
-33 -60 0
-34 -60 0
-31 -58 0
-33 -58 0
-35 -60 0
-33 -57 0
-34 -57 0
-33 -59 0
-31 -59 0
-32 -58 0
-32 -60 0
-32 -56 0
-35 -57 0
-34 -58 0
-32 -57 0
-32 -59 0
-31 -56 0
-34 -56 0
-35 -59 0
-31 -57 0
-34 -59 0
-34 -195 0
-34 -191 0
-35 -192 0
-35 -193 0
-32 -192 0
-31 -193 0
-32 -193 0
-35 -191 0
-31 -194 0
-32 -191 0
-31 -195 0
-34 -194 0
-34 -193 0
-34 -192 0
-33 -192 0
-31 -192 0
-33 -191 0
-33 -195 0
-35 -194 0
-33 -193 0
-32 -194 0
-33 -194 0
-37 -54 0
-39 -55 0
-39 -52 0
-37 -55 0
-37 -52 0
-36 -52 0
-40 -53 0
-36 -54 0
-36 -55 0
-40 -55 0
-39 -53 0
-40 -51 0
-36 -51 0
-37 -53 0
-36 -53 0
-40 -54 0
-38 -51 0
-40 -52 0
-39 -54 0
-38 -55 0
-38 -53 0
-38 -52 0
-40 -87 0
-39 -86 0
-38 -86 0
-36 -89 0
-37 -90 0
-36 -86 0
-38 -87 0
-38 -89 0
-37 -88 0
-40 -88 0
-39 -88 0
-39 -89 0
-40 -89 0
-38 -90 0
-38 -88 0
-39 -90 0
-39 -87 0
-37 -89 0
-36 -90 0
-40 -86 0
-37 -87 0
-36 -88 0
-38 -100 0
-38 -98 0
-40 -100 0
-36 -100 0
-36 -96 0
-39 -98 0
-39 -97 0
-38 -99 0
-37 -97 0
-37 -96 0
-40 -99 0
-36 -97 0
-39 -99 0
-37 -100 0
-39 -96 0
-39 -100 0
-37 -98 0
-38 -97 0
-40 -98 0
-40 -96 0
-40 -97 0
-38 -96 0
-42 -122 0
-43 -125 0
-45 -124 0
-44 -125 0
-45 -123 0
-42 -121 0
-44 -121 0
-44 -122 0
-41 -124 0
-43 -123 0
-43 -124 0
-42 -125 0
-45 -122 0
-43 -122 0
-41 -125 0
-41 -121 0
-42 -124 0
-44 -124 0
-45 -125 0
-41 -122 0
-43 -121 0
-45 -121 0
-42 -144 0
-45 -141 0
-42 -141 0
-44 -142 0
-43 -145 0
-45 -144 0
-41 -143 0
-42 -145 0
-43 -142 0
-44 -145 0
-41 -144 0
-41 -145 0
-41 -141 0
-43 -141 0
-45 -142 0
-43 -143 0
-41 -142 0
-45 -143 0
-44 -144 0
-44 -143 0
-44 -141 0
-45 -145 0
-46 -91 0
-48 -95 0
-49 -91 0
-50 -95 0
-46 -94 0
-50 -94 0
-50 -91 0
-48 -92 0
-49 -93 0
-46 -95 0
-47 -94 0
-49 -94 0
-48 -91 0
-46 -92 0
-46 -93 0
-48 -93 0
-48 -94 0
-47 -95 0
-47 -92 0
-47 -91 0
-50 -92 0
-47 -93 0
-48 -129 0
-46 -127 0
-47 -127 0
-50 -130 0
-50 -127 0
-50 -129 0
-49 -127 0
-49 -130 0
-46 -129 0
-47 -126 0
-46 -126 0
-46 -128 0
-48 -126 0
-48 -127 0
-47 -130 0
-50 -126 0
-50 -128 0
-49 -129 0
-49 -126 0
-49 -128 0
-48 -130 0
-46 -130 0
-55 -73 0
-52 -75 0
-52 -73 0
-54 -75 0
-51 -71 0
-55 -72 0
-52 -72 0
-53 -72 0
-51 -72 0
-51 -73 0
-51 -75 0
-54 -74 0
-53 -74 0
-54 -71 0
-55 -75 0
-54 -72 0
-53 -71 0
-53 -75 0
-51 -74 0
-52 -71 0
-55 -74 0
-54 -73 0
-53 -92 0
-55 -95 0
-52 -91 0
-51 -92 0
-54 -95 0
-55 -93 0
-51 -95 0
-54 -92 0
-52 -93 0
-53 -91 0
-53 -95 0
-55 -91 0
-52 -94 0
-52 -95 0
-55 -92 0
-52 -92 0
-54 -93 0
-55 -94 0
-53 -93 0
-54 -91 0
-51 -93 0
-51 -91 0
-53 -125 0
-55 -122 0
-52 -121 0
-54 -124 0
-52 -123 0
-51 -125 0
-51 -124 0
-54 -123 0
-51 -122 0
-55 -123 0
-53 -124 0
-52 -124 0
-51 -121 0
-53 -123 0
-54 -125 0
-54 -122 0
-53 -122 0
-52 -125 0
-51 -123 0
-55 -125 0
-53 -121 0
-55 -121 0
-51 -167 0
-53 -166 0
-54 -168 0
-53 -169 0
-52 -167 0
-53 -168 0
-52 -170 0
-53 -167 0
-55 -169 0
-54 -169 0
-51 -170 0
-54 -170 0
-51 -166 0
-55 -168 0
-55 -166 0
-55 -170 0
-51 -169 0
-51 -168 0
-55 -167 0
-54 -167 0
-54 -166 0
-52 -166 0
-59 -80 0
-58 -78 0
-57 -77 0
-60 -79 0
-60 -77 0
-56 -80 0
-56 -77 0
-57 -76 0
-60 -80 0
-57 -79 0
-57 -78 0
-60 -78 0
-56 -78 0
-56 -79 0
-58 -79 0
-59 -76 0
-59 -77 0
-58 -77 0
-56 -76 0
-57 -80 0
-59 -78 0
-58 -76 0
-56 -162 0
-58 -162 0
-59 -165 0
-56 -163 0
-59 -161 0
-59 -162 0
-56 -164 0
-58 -164 0
-57 -162 0
-56 -165 0
-58 -165 0
-60 -163 0
-60 -161 0
-56 -161 0
-59 -164 0
-60 -165 0
-58 -163 0
-57 -163 0
-57 -165 0
-58 -161 0
-59 -163 0
-57 -164 0
-60 -189 0
-56 -188 0
-57 -190 0
-58 -189 0
-57 -188 0
-56 -189 0
-60 -190 0
-56 -187 0
-56 -186 0
-59 -187 0
-58 -188 0
-59 -186 0
-59 -189 0
-57 -186 0
-60 -188 0
-58 -186 0
-59 -190 0
-57 -189 0
-60 -187 0
-58 -187 0
-58 -190 0
-60 -186 0
-60 -192 0
-59 -194 0
-60 -191 0
-58 -192 0
-57 -195 0
-56 -193 0
-59 -192 0
-59 -195 0
-56 -195 0
-57 -192 0
-57 -194 0
-58 -195 0
-57 -193 0
-59 -193 0
-58 -193 0
-56 -192 0
-57 -191 0
-58 -191 0
-60 -194 0
-58 -194 0
-56 -194 0
-56 -191 0
-64 -115 0
-61 -112 0
-63 -112 0
-62 -115 0
-62 -112 0
-64 -113 0
-63 -113 0
-65 -113 0
-63 -111 0
-64 -114 0
-64 -111 0
-61 -115 0
-64 -112 0
-63 -115 0
-62 -111 0
-61 -111 0
-62 -114 0
-65 -114 0
-61 -113 0
-65 -115 0
-61 -114 0
-62 -113 0
-64 -138 0
-64 -136 0
-63 -137 0
-63 -138 0
-61 -140 0
-62 -137 0
-64 -140 0
-62 -140 0
-62 -136 0
-63 -140 0
-61 -137 0
-65 -140 0
-63 -139 0
-62 -139 0
-61 -136 0
-62 -138 0
-64 -137 0
-65 -139 0
-61 -139 0
-65 -137 0
-63 -136 0
-65 -136 0
-62 -190 0
-63 -188 0
-64 -188 0
-63 -190 0
-65 -189 0
-65 -186 0
-62 -186 0
-61 -186 0
-62 -188 0
-63 -186 0
-63 -189 0
-61 -187 0
-61 -188 0
-63 -187 0
-64 -186 0
-61 -190 0
-61 -189 0
-65 -190 0
-64 -187 0
-64 -189 0
-65 -187 0
-62 -187 0
-69 -88 0
-66 -87 0
-68 -88 0
-69 -90 0
-66 -86 0
-68 -86 0
-66 -89 0
-67 -90 0
-70 -86 0
-66 -90 0
-66 -88 0
-67 -87 0
-68 -90 0
-68 -89 0
-70 -88 0
-70 -90 0
-69 -89 0
-69 -86 0
-67 -86 0
-69 -87 0
-67 -88 0
-67 -89 0
-67 -122 0
-69 -123 0
-68 -124 0
-67 -121 0
-69 -121 0
-70 -122 0
-67 -125 0
-68 -125 0
-68 -122 0
-70 -123 0
-70 -125 0
-66 -121 0
-69 -125 0
-67 -124 0
-69 -124 0
-68 -121 0
-69 -122 0
-70 -121 0
-67 -123 0
-66 -125 0
-70 -124 0
-66 -122 0
-68 -128 0
-70 -126 0
-67 -126 0
-70 -127 0
-67 -130 0
-66 -130 0
-69 -126 0
-67 -127 0
-69 -129 0
-67 -128 0
-66 -126 0
-66 -127 0
-70 -128 0
-66 -128 0
-67 -129 0
-66 -129 0
-70 -130 0
-70 -129 0
-69 -130 0
-69 -128 0
-68 -127 0
-68 -126 0
-67 -146 0
-68 -149 0
-66 -150 0
-68 -146 0
-69 -146 0
-66 -147 0
-67 -149 0
-66 -146 0
-70 -147 0
-69 -150 0
-69 -148 0
-66 -149 0
-68 -148 0
-70 -148 0
-67 -148 0
-69 -147 0
-70 -146 0
-67 -147 0
-70 -150 0
-70 -149 0
-68 -150 0
-68 -147 0
-67 -172 0
-69 -172 0
-70 -174 0
-68 -173 0
-66 -171 0
-69 -175 0
-70 -172 0
-70 -173 0
-69 -174 0
-70 -171 0
-66 -175 0
-68 -171 0
-67 -171 0
-66 -172 0
-67 -173 0
-67 -174 0
-68 -172 0
-69 -171 0
-68 -174 0
-69 -173 0
-67 -175 0
-68 -175 0
-74 -91 0
-73 -92 0
-72 -94 0
-73 -91 0
-74 -95 0
-74 -93 0
-74 -94 0
-72 -95 0
-75 -91 0
-72 -93 0
-71 -93 0
-75 -93 0
-72 -92 0
-75 -95 0
-73 -93 0
-73 -95 0
-73 -94 0
-71 -92 0
-75 -94 0
-75 -92 0
-71 -95 0
-72 -91 0
-74 -130 0
-71 -126 0
-75 -127 0
-73 -130 0
-72 -126 0
-71 -129 0
-75 -128 0
-75 -126 0
-74 -126 0
-73 -129 0
-72 -128 0
-71 -127 0
-74 -127 0
-72 -129 0
-75 -129 0
-71 -130 0
-72 -130 0
-75 -130 0
-74 -129 0
-74 -128 0
-73 -127 0
-71 -128 0
-79 -122 0
-80 -122 0
-79 -123 0
-79 -121 0
-76 -122 0
-76 -123 0
-77 -121 0
-77 -124 0
-76 -121 0
-78 -121 0
-76 -124 0
-78 -122 0
-76 -125 0
-79 -125 0
-80 -123 0
-78 -123 0
-78 -125 0
-77 -125 0
-80 -125 0
-79 -124 0
-80 -124 0
-77 -122 0
-76 -197 0
-80 -197 0
-77 -196 0
-78 -199 0
-76 -198 0
-80 -198 0
-78 -197 0
-76 -199 0
-79 -199 0
-79 -200 0
-80 -200 0
-76 -200 0
-78 -200 0
-76 -196 0
-77 -198 0
-78 -196 0
-79 -197 0
-79 -198 0
-77 -200 0
-77 -199 0
-80 -196 0
-80 -199 0
-83 -100 0
-84 -100 0
-85 -100 0
-85 -96 0
-82 -100 0
-84 -99 0
-82 -99 0
-82 -96 0
-83 -97 0
-85 -97 0
-85 -98 0
-81 -96 0
-84 -96 0
-82 -98 0
-83 -98 0
-83 -96 0
-81 -99 0
-84 -97 0
-84 -98 0
-82 -97 0
-81 -100 0
-85 -99 0
-83 -113 0
-82 -111 0
-85 -115 0
-81 -115 0
-81 -111 0
-82 -112 0
-84 -111 0
-85 -113 0
-84 -112 0
-82 -115 0
-85 -111 0
-85 -112 0
-81 -113 0
-84 -115 0
-84 -113 0
-83 -112 0
-85 -114 0
-82 -114 0
-83 -115 0
-82 -113 0
-83 -114 0
-81 -114 0
-85 -176 0
-82 -179 0
-81 -177 0
-82 -180 0
-83 -176 0
-82 -178 0
-85 -178 0
-81 -176 0
-81 -180 0
-81 -178 0
-84 -177 0
-81 -179 0
-84 -178 0
-85 -180 0
-84 -179 0
-85 -177 0
-82 -177 0
-83 -179 0
-83 -177 0
-83 -178 0
-84 -180 0
-84 -176 0
-90 -103 0
-90 -104 0
-90 -101 0
-86 -104 0
-89 -105 0
-88 -102 0
-87 -101 0
-89 -104 0
-90 -105 0
-86 -101 0
-89 -103 0
-90 -102 0
-86 -103 0
-86 -105 0
-88 -101 0
-86 -102 0
-88 -105 0
-88 -103 0
-87 -102 0
-88 -104 0
-89 -101 0
-87 -105 0
-91 -150 0
-91 -147 0
-93 -147 0
-91 -148 0
-94 -146 0
-93 -146 0
-94 -149 0
-95 -148 0
-93 -149 0
-95 -146 0
-91 -149 0
-95 -147 0
-92 -149 0
-92 -146 0
-94 -150 0
-92 -150 0
-91 -146 0
-95 -150 0
-94 -147 0
-92 -147 0
-93 -150 0
-95 -149 0
-94 -183 0
-94 -184 0
-91 -183 0
-92 -185 0
-91 -182 0
-95 -185 0
-95 -183 0
-95 -182 0
-92 -183 0
-92 -182 0
-92 -181 0
-93 -184 0
-93 -181 0
-95 -181 0
-94 -185 0
-93 -182 0
-94 -182 0
-93 -183 0
-95 -184 0
-91 -184 0
-91 -185 0
-93 -185 0
-96 -142 0
-100 -142 0
-100 -145 0
-100 -143 0
-96 -141 0
-97 -144 0
-99 -143 0
-98 -141 0
-98 -142 0
-96 -144 0
-98 -145 0
-99 -141 0
-99 -145 0
-96 -145 0
-97 -143 0
-100 -144 0
-97 -142 0
-99 -144 0
-97 -141 0
-98 -144 0
-97 -145 0
-96 -143 0
-104 -140 0
-104 -138 0
-104 -137 0
-105 -139 0
-102 -137 0
-102 -140 0
-103 -138 0
-105 -140 0
-103 -140 0
-102 -136 0
-104 -136 0
-105 -136 0
-105 -138 0
-101 -139 0
-101 -137 0
-102 -139 0
-103 -139 0
-101 -136 0
-105 -137 0
-101 -138 0
-103 -136 0
-102 -138 0
-105 -154 0
-102 -154 0
-104 -153 0
-101 -152 0
-101 -153 0
-105 -155 0
-105 -152 0
-103 -154 0
-102 -153 0
-102 -155 0
-101 -154 0
-104 -151 0
-104 -155 0
-103 -151 0
-103 -153 0
-104 -152 0
-102 -152 0
-101 -155 0
-104 -154 0
-105 -151 0
-103 -152 0
-102 -151 0
-103 -162 0
-101 -161 0
-105 -164 0
-104 -161 0
-101 -165 0
-104 -164 0
-102 -162 0
-105 -165 0
-101 -164 0
-101 -163 0
-103 -161 0
-102 -163 0
-105 -162 0
-105 -161 0
-103 -164 0
-101 -162 0
-105 -163 0
-103 -163 0
-102 -164 0
-102 -165 0
-104 -162 0
-104 -165 0
-107 -114 0
-106 -111 0
-107 -115 0
-106 -112 0
-109 -112 0
-106 -115 0
-108 -113 0
-109 -114 0
-109 -115 0
-107 -111 0
-110 -113 0
-108 -112 0
-110 -112 0
-109 -113 0
-110 -111 0
-110 -115 0
-108 -115 0
-106 -113 0
-108 -111 0
-108 -114 0
-109 -111 0
-107 -113 0
-106 -169 0
-109 -166 0
-107 -169 0
-107 -168 0
-108 -166 0
-106 -168 0
-106 -167 0
-110 -166 0
-109 -170 0
-107 -166 0
-107 -170 0
-108 -168 0
-108 -170 0
-110 -169 0
-107 -167 0
-110 -170 0
-109 -167 0
-106 -170 0
-106 -166 0
-109 -169 0
-110 -168 0
-108 -167 0
-112 -121 0
-115 -125 0
-112 -122 0
-111 -121 0
-111 -124 0
-111 -122 0
-113 -122 0
-111 -123 0
-115 -121 0
-112 -123 0
-114 -125 0
-112 -125 0
-112 -124 0
-114 -121 0
-113 -125 0
-114 -124 0
-111 -125 0
-115 -122 0
-114 -123 0
-115 -124 0
-114 -122 0
-115 -123 0
-115 -198 0
-115 -197 0
-115 -199 0
-112 -200 0
-114 -197 0
-111 -198 0
-113 -200 0
-111 -199 0
-113 -197 0
-115 -200 0
-113 -198 0
-112 -198 0
-113 -199 0
-112 -197 0
-113 -196 0
-111 -200 0
-112 -199 0
-114 -200 0
-114 -199 0
-115 -196 0
-114 -198 0
-114 -196 0
-117 -156 0
-118 -158 0
-120 -158 0
-119 -156 0
-119 -159 0
-116 -159 0
-116 -160 0
-117 -160 0
-117 -158 0
-119 -160 0
-117 -159 0
-120 -156 0
-116 -157 0
-118 -156 0
-119 -158 0
-120 -159 0
-120 -157 0
-120 -160 0
-119 -157 0
-118 -157 0
-117 -157 0
-116 -156 0
-118 -195 0
-118 -193 0
-118 -191 0
-117 -193 0
-119 -195 0
-119 -193 0
-116 -191 0
-119 -194 0
-120 -192 0
-117 -194 0
-117 -191 0
-118 -194 0
-120 -191 0
-117 -192 0
-116 -193 0
-119 -191 0
-117 -195 0
-119 -192 0
-120 -193 0
-116 -194 0
-120 -195 0
-120 -194 0
-127 -174 0
-128 -174 0
-127 -171 0
-130 -173 0
-129 -173 0
-126 -173 0
-128 -173 0
-129 -175 0
-127 -173 0
-127 -175 0
-126 -174 0
-129 -172 0
-129 -171 0
-130 -175 0
-129 -174 0
-126 -175 0
-130 -171 0
-126 -172 0
-128 -175 0
-128 -172 0
-128 -171 0
-126 -171 0
-134 -143 0
-135 -145 0
-132 -143 0
-131 -141 0
-133 -141 0
-133 -144 0
-132 -142 0
-135 -142 0
-134 -144 0
-131 -145 0
-133 -142 0
-135 -141 0
-133 -145 0
-134 -142 0
-131 -143 0
-134 -145 0
-132 -145 0
-132 -144 0
-134 -141 0
-133 -143 0
-131 -144 0
-135 -144 0
-131 -172 0
-132 -173 0
-134 -171 0
-135 -172 0
-134 -175 0
-131 -173 0
-133 -173 0
-133 -174 0
-135 -175 0
-134 -172 0
-135 -171 0
-132 -174 0
-133 -172 0
-133 -171 0
-131 -171 0
-134 -173 0
-132 -172 0
-135 -174 0
-131 -174 0
-132 -175 0
-131 -175 0
-135 -173 0
-131 -176 0
-133 -178 0
-131 -179 0
-132 -180 0
-134 -179 0
-134 -180 0
-135 -179 0
-135 -178 0
-132 -178 0
-131 -178 0
-132 -179 0
-131 -177 0
-133 -179 0
-134 -178 0
-131 -180 0
-132 -176 0
-135 -180 0
-132 -177 0
-133 -180 0
-134 -176 0
-134 -177 0
-133 -177 0
-138 -195 0
-139 -193 0
-138 -194 0
-137 -195 0
-136 -193 0
-138 -193 0
-138 -192 0
-136 -192 0
-136 -194 0
-140 -195 0
-137 -191 0
-140 -194 0
-139 -194 0
-136 -195 0
-140 -192 0
-140 -191 0
-139 -191 0
-137 -194 0
-139 -192 0
-137 -193 0
-136 -191 0
-138 -191 0
-144 -163 0
-141 -164 0
-142 -162 0
-143 -164 0
-142 -161 0
-144 -162 0
-145 -164 0
-141 -163 0
-142 -163 0
-143 -162 0
-142 -164 0
-142 -165 0
-144 -161 0
-141 -161 0
-143 -161 0
-145 -161 0
-144 -165 0
-144 -164 0
-143 -165 0
-141 -165 0
-145 -163 0
-143 -163 0
-154 -173 0
-155 -175 0
-152 -172 0
-154 -174 0
-151 -174 0
-151 -175 0
-155 -174 0
-153 -171 0
-154 -171 0
-154 -172 0
-152 -171 0
-153 -173 0
-151 -172 0
-152 -175 0
-152 -173 0
-151 -173 0
-151 -171 0
-153 -174 0
-155 -172 0
-155 -173 0
-153 -172 0
-153 -175 0
-167 -181 0
-166 -181 0
-168 -185 0
-167 -184 0
-166 -184 0
-169 -181 0
-166 -182 0
-170 -185 0
-166 -183 0
-168 -181 0
-169 -182 0
-170 -181 0
-167 -183 0
-167 -182 0
-166 -185 0
-167 -185 0
-170 -184 0
-168 -182 0
-168 -183 0
-169 -185 0
-168 -184 0
-170 -183 0
-168 -190 0
-166 -187 0
-169 -187 0
-170 -188 0
-170 -186 0
-167 -190 0
-170 -187 0
-168 -187 0
-169 -186 0
-167 -187 0
-167 -186 0
-166 -186 0
-168 -188 0
-167 -189 0
-166 -190 0
-168 -186 0
-169 -189 0
-166 -188 0
-166 -189 0
-168 -189 0
-169 -188 0
-169 -190 0
-174 -192 0
-172 -193 0
-172 -192 0
-174 -191 0
-172 -194 0
-173 -194 0
-173 -192 0
-175 -195 0
-175 -194 0
-175 -192 0
-171 -195 0
-174 -195 0
-175 -191 0
-174 -193 0
-172 -191 0
-175 -193 0
-171 -192 0
-172 -195 0
-174 -194 0
-171 -193 0
-173 -191 0
-171 -191 0
-177 -191 0
-180 -193 0
-177 -194 0
-177 -193 0
-176 -193 0
-176 -191 0
-176 -195 0
-178 -192 0
-180 -195 0
-179 -192 0
-180 -194 0
-177 -192 0
-178 -194 0
-180 -192 0
-177 -195 0
-178 -195 0
-180 -191 0
-179 -191 0
-178 -193 0
-179 -194 0
-176 -192 0
-176 -194 0
-189 -193 0
-189 -191 0
-188 -195 0
-190 -193 0
-189 -195 0
-186 -191 0
-188 -191 0
-190 -192 0
-188 -192 0
-187 -195 0
-190 -191 0
-187 -194 0
-187 -191 0
-190 -194 0
-188 -194 0
-188 -193 0
-189 -192 0
-186 -195 0
-186 -194 0
-187 -193 0
-187 -192 0
-190 -195 0
-188 -198 0
-189 -199 0
-190 -197 0
-189 -200 0
-186 -200 0
-187 -199 0
-186 -197 0
-190 -199 0
-189 -197 0
-190 -200 0
-189 -198 0
-188 -196 0
-188 -197 0
-188 -199 0
-190 -196 0
-187 -200 0
-187 -196 0
-190 -198 0
-188 -200 0
-186 -199 0
-187 -198 0
-186 -196 0
